     60      2     34    312     10
     42     33
     55     42     53     42     40      9     21     17     46     37     48     12     48     26     14     55     49     37     25      9      6      4      6     50      3     45     11     24     47      4     25     29     50     28     42     18      1     21     43     46     30     31     23     30     37     16     36     24     58     42     41     18     24     12     24     23     45     28      7     44     54     17     20      1     38     35      0      6     51     46     53     44     55     46     12     18     30     22     38     39     44     46     48     13     42     53     34     46      7     44     21      5     25     37     47     25     50     44     29     34     35      2     47     49     50     27     15      1     54     32     54     51     18     41     34     27      5     43     51     35
     77     12     71      2     53     73      6    211    217     48    193    191    178     65    139     39     32     11    165    173     63     74     19     84     13     45    102     35    -29    -31
     10     11     13	    480    191     15     34      3      0    -20      0      0      0    137      0    221      0      0      0      0      0     90      0      0     33      0      0      0      0      0    267    194      0      0      0      0      0      0      0      0      0      0      0    156    249      0      0      0      0      0    118      0    173      0      0     44      0      0      0      0      0    131      0      0      0    -66    194      0
      6     11     10	    457    269     31     32      8    -20      0      0      0      0      0    248      0      0      0    261      0      0      0      0      0      0      0    -23      0      0      0      0      0      0    182    149      0      0      0     96    -53      0      0      0      0      0    154      0      0      0      0    -16      0      0      0      0      0      0      0      0      0     89      0      0      0      0      0      0      0
      7     11     14	    254    167     24     30      4      0      0      0      0      0      0     14      0      0    -14      0      0      0      0      0      0      0      0      0      0      0      0    192     87      0      0      0      0      0      0      0    -15      0    123    -15      0     22      0      0      0      0      0    109      0      0      0      0     96      0      0    148      0      0      0    129    100      0      0      0      0
      9     13     14	    248    123     20     32      2      0      0      0      0      0      0      0      0      0      5      0     91      0      0      0      0      0     73     55      0    141      0      0      0      0      0      0      0      0      0      0      0     43      0      0      0    -40      0      0      0      0      0      0      0      0    -12     32      0      0      0      0      0      0      0      0      0      0      0      0      0
      6     15     15	    405    200     33     33      8      0      0      0      0      0     60      0      0     57    284      0      0    223      0    299      0      0      0      0      0      0      0      0      0    157      0      0      0     34      0      0      0      0      0    108      0      0    -40      0      0      0     -1      0      0      0      0    -20    116      0    164      0      0      0      0      0      0      0      0      0      0
      8     15     11	    174    116      9     20      2    137      0      0      0     60      0      0      0     61      0      0      0      0      0      0      0      0      0      0      0     28      0      0      0    104      0      0      0      0      0      0      0      0      0     60      0      0      0      0      0      0      0      0      0      0      0      0      0      0      0      0      0      0    103      0      0      0      0      0      0
      8     10     13	    462    135     23     27      4      0    248     14      0      0      0      0      0      0      0      0     88      0      0      0     24      0      0     95      0      0      0    114      0    115      0      0    231      0      0      0      0      0      0      0      0      0      0      0      0    -14      0      0      0      0     47      0      0      0      0      0      0      0      0      0      0      0      0      0      0
      8     12     11	    343    153     34     34      2    221      0      0      0      0      0      0      0      0      0      0      0      3     90    -46      3      0      0      0      0      0      0      0    -63      0      0      0      0      0      0      0      0     27      0      0      0    137      0      0      0      0      0      0      0      0      0      0    138     76      0      0     35    124      0      0      0      0    -54      0      0
     10     14     10	    281     94     25     25      8      0      0      0      0     57     61      0      0      0      0      0      0      0     64      0      0      0      0      0    102    123      0      0    177      0      0    -37      0      0      0      0    149      0      0      0      0      0    203    199      0     63      0      0      0      0      0      0    113     58      0     77    -40      0      0    214      0      0      0      0     32
      6     12     14	    399    156     27     30      1      0      0    -14      5    284      0      0      0      0      0      0      0      0      0      0      0      0      0     70    130      0      0      0      0     24      0      0      0      0     60      0      0      0      0     68      0      0    240     16      0      0      0      0      0    -61     43      0      0      0      0      0      0      0      0      0      0      0    102    104      0
      7     13     14	    337    131     20     32      7      0    261      0      0      0      0      0      0      0      0      0      0      0      0      0      0      0     81      0      0      0      0      0      0     49      0      0      0      0      0      0      0      0    -25      0      0      0      0      0      0      0    100      0      0    133      0      0      0      0      0      0    202      0    260      0      0      0      0      0      0
     10     11     15	    324    140     25     31      7      0      0      0     91      0      0     88      0      0      0      0      0      0      0      0      0      0      0      0    -11    -41      0      0      0      0      0      0      3    135     64    116    -28      0      0      0      0    133      0      0    163     28      0      0      0      0      0      0      0    122      0      0      0      0      0     27      0      0      0      0      0
      7     15     10	    456    118     21     26      1      0      0      0      0    223      0      0      3      0      0      0      0      0    -10     94      0      0      0      0      0      0      0    -22      0     87      0      0      0      0     25      0      0      0      0      0      0      0    -86      0    189      0      0      0    246      0      0      0      0      0      0      0    183    135      0      0      0    233      0     55    102
     12     12     12	    138     66     16     27      9     90      0      0      0      0      0      0     90     64      0      0      0    -10      0      0      0      0      0      0     11      0      0      0      0     -8      0      0      0      3     43      0      0     46      0      0      0      0      0      0      0      0      0      0      0      0      0      0      0      0     21      0      0      0      0      0      0      0      0      0     98
     10     15     13	    415    150     24     30      8      0      0      0      0    299      0      0    -46      0      0      0      0     94      0      0      0      0      0      0      0      0      0      0      0      0      0      0      0      0      0      0      0      0      0      0      0      0     92      0    163      0      0      0      0      0      0      0      0      0    309     -9      0      0      0      0      0      0      0      0    187
      8     13     11	    275    125     28     34     10      0      0      0      0      0      0     24      3      0      0      0      0      0      0      0      0      0    -17      2      0      0      0      0      0      0     48      0      0      0      0     12      0      0     87     20      0      0      0      0      0      0      0      0      0    -49      0      0      0      0      0      0      0      0      0      0      0    135      0      0      0
     10     15     15	    204     71     22     31      9     33      0      0      0      0      0      0      0      0      0      0      0      0      0      0      0      0     60      0      5      0      0      0      0      0    135      0      0      0      0      0      0      0      0      0      0      0      0      0      0      0      0      0      0      0      0      0      0      0      0     42      0      0     23    -12      0      0    -40      0     15
      6     13     15	    136     56     11     32      9      0      0      0     73      0      0      0      0      0      0     81      0      0      0      0    -17     60      0      0     69     65      0      0    102      0      0      0      0      0      0      0      0      0      0    -19      0      0      0     92      0      0     41      0      0      0      0      0     48      0      0      0      0     86      0      0      0      0      0      0      0
     12     15     14	    122     56     18     32      4      0    -23      0     55      0      0     95      0      0     70      0      0      0      0      0      2      0      0      0      0      0    -19      0      0      0      0      0      0      0      0      0      0      1      0     15      0      0      0      0     29     73      0      0      0      0      0      0      2      0     56      0      0     17      0      0      0      0      0      0      0
     10     12     14	    484    337     24     28      7      0      0      0      0      0      0      0      0    102    130      0    -11      0     11      0      0      5     69      0      0      0      0      0    326      0      0      0      0      0      0      0     75      0      0      0      0      0      0    186      0     62      0      0      0      0      0      0      0      0     45    130      0      0      0      0      0      0      0    -47      0
      9     12     15	    291    153     24     34      7      0      0      0    141      0     28      0      0    123      0      0    -41      0      0      0      0      0     65      0      0      0      0      0      0    151     90      0      0      0      0      0    173      0      0      0      0      0    139      0      0      0      0      0      0      0      0      0    205      0      0      0      0      0      0      0      0      0     96      0      0
     10     11     12	    339     75     16     17      8      0      0      0      0      0      0      0      0      0      0      0      0      0      0      0      0      0      0    -19      0      0      0      0      0      0      2      0      0      0      0     63      0     68      0      0      0    217    198      0      0      0      0      0      0      0      0      0      0      0      0    115      0      0     31      0      0      0      0      0      0
      8     13     15	    384     76     10     18      9    267      0    192      0      0      0    114      0      0      0      0      0    -22      0      0      0      0      0      0      0      0      0      0      0    161      0      0      0      0      0      0      0      0    171      0      0      0      0      0      0      0     39    176    173      0      0      0      0      0    103      0      0      0      0      0      0    180      0     10    125
      7     12     13	    425    276     26     26      9    194      0     87      0      0      0      0    -63    177      0      0      0      0      0      0      0      0    102      0    326      0      0      0      0      0      0      0      0      0     92      0      0      0      0      0      0    -78      0      0      0      0      0      0    -75      0      0      0    286      0      0      0      0      0      0      0      0    136      0      0      0
     12     12     14	    319     51     27     31      4      0      0      0      0    157    104    115      0      0     24     49      0     87     -8      0      0      0      0      0      0    151      0    161      0      0     82      0      0      0      0      0      0      0      0      0      0      0      0    124      0      0      0    191      0      0      0      0      0      0      0      0      0      0      0      0      0      0      0      0      0
     12     13     10	    251     80     29     32      7      0    182      0      0      0      0      0      0      0      0      0      0      0      0      0     48    135      0      0      0     90      2      0      0     82      0      0     60      0      0      0      0      0      0      0    167      0      0      0      0      0      0      0      0      0      0     50      0      0      0      0      0      0      0     90      0      0      0      0    176
      6     13     11	    368     67     14     24      3      0    149      0      0      0      0      0      0    -37      0      0      0      0      0      0      0      0      0      0      0      0      0      0      0      0      0      0    160      0      0      0      0      0      0      0    195    216      0      0      0      0    112      0      0     21      0      0      0      0      0     95      0     74      0      0      0      0      0      0      0
     12     15     11	    460    158     23     34      7      0      0      0      0      0      0    231      0      0      0      0      3      0      0      0      0      0      0      0      0      0      0      0      0      0     60    160      0      0      0      0      0      0      0      0    139    -32     86      0      0      0      0      0      0    254     80      0      0      0      0      0      0      0    -78    -46      0      0      0      0      0
     12     15     13	    216    140     27     32      3      0      0      0      0     34      0      0      0      0      0      0    135      0      3      0      0      0      0      0      0      0      0      0      0      0      0      0      0      0      0      0     65      0     57    116     24      0      0    171      0      0    109      0      0     30      0      0      0      0      0    116      0      0      0      0      0      0      0     39     52
      6     15     14	    151     56     22     31      2      0      0      0      0      0      0      0      0      0     60      0     64     25     43      0      0      0      0      0      0      0      0      0     92      0      0      0      0      0      0     63      0      0      0      0     98      0      0      0      0      0      0      0      0      0      0     48      0      0      0      0      0      0      0      0      0      0    -14      0      0
     11     11     14	    166     96     27     33      5      0     96      0      0      0      0      0      0      0      0      0    116      0      0      0     12      0      0      0      0      0     63      0      0      0      0      0      0      0     63      0      0      0      0     12      0      0      0      0    101      0      0      0      0      0     69      0      0      0      0      0      0      0     80      0    -18    -25      0      0      0
     10     12     15	    329    181     28     33      2      0    -53    -15      0      0      0      0      0    149      0      0    -28      0      0      0      0      0      0      0     75    173      0      0      0      0      0      0      0     65      0      0      0      0      0      0      0      0      0      0      0      0      0    212      0      0      0    182      0     70      0      0      0      0      0      0     88    132      0      0      0
     10     11     10	    192    133     22     33      6      0      0      0     43      0      0      0     27      0      0      0      0      0     46      0      0      0      0      1      0      0     68      0      0      0      0      0      0      0      0      0      0      0      0      0     63      0      0     92      0      0      0      0     24      0    -10     51      8      0    -36      0      0    151      0     13      0     54      0      0      0
      9     13     10	    417    169     24     31      1      0      0    123      0      0      0      0      0      0      0    -25      0      0      0      0     87      0      0      0      0      0      0    171      0      0      0      0      0     57      0      0      0      0      0      0      0      0    122      0      0      0      0      0    262      0      0    -33      0      0      0      0      0      0    -61      0     -9      0      0      0      0
      8     14     13	    171     79     31     34      2      0      0    -15      0    108     60      0      0      0     68      0      0      0      0      0     20      0    -19     15      0      0      0      0      0      0      0      0      0    116      0     12      0      0      0      0     53      0      0      0      0      0     29      9      0      0      0      0      0      0      0      0      0      0      0      0      0      0      0      0      0
      7     12     10	    404    158     32     34      2    156      0      0      0      0      0      0      0      0      0      0      0      0      0      0      0      0      0      0      0      0      0      0      0      0    167    195    139     24     98      0      0     63      0     53      0      0      0      0      0      0      0      0    -16      0     40      0    201      0     80     85      0     32      0    137      0      0      0      0      0
     11     14     14	    452     93     13     32      4    249      0     22    -40      0      0      0    137      0      0      0    133      0      0      0      0      0      0      0      0      0    217      0    -78      0      0    216    -32      0      0      0      0      0      0      0      0      0      0    -21    141      0    130      0      0      0      0      0      0      0      6     12    243    185      0     82     22      0      0      0      0
     11     10     15	    461    244     27     31      2      0    154      0      0    -40      0      0      0    203    240      0      0    -86      0     92      0      0      0      0      0    139    198      0      0      0      0      0     86      0      0      0      0      0    122      0      0      0      0      0    207      0    197    109      0      0      0      0      0      3      0      0      0      0      0      0      0     11    168      0     16
     10     13     14	    253    123     13     14      3      0      0      0      0      0      0      0      0    199     16      0      0      0      0      0      0      0     92      0    186      0      0      0      0    124      0      0      0    171      0      0      0     92      0      0      0    -21      0      0    -40      0      0      0    183      0      0      0      0     62    -13      0      0      0     58    171     46      0      0      0    138
      6     13     12	    367    212     18     27      9      0      0      0      0      0      0      0      0      0      0      0    163    189      0    163      0      0      0     29      0      0      0      0      0      0      0      0      0      0      0    101      0      0      0      0      0    141    207    -40      0      0      0      0      0    103      0     19      0     75      0      0      0      0     77    -51      0      0      0      0      0
      9     11     12	    267    144     11     34      3      0      0      0      0      0      0    -14      0     63      0      0     28      0      0      0      0      0      0     73     62      0      0      0      0      0      0      0      0      0      0      0      0      0      0      0      0      0      0      0      0      0     19      0      0      0      0      0      0      0      0      0      0      0      0    181      0      0      0      0      0
      6     12     14	    281    159     19     28      3      0      0      0      0     -1      0      0      0      0      0    100      0      0      0      0      0      0     41      0      0      0      0     39      0      0      0    112      0    109      0      0      0      0      0     29      0    130    197      0      0     19      0    120      0      0      0      0      0      0    155      0      0      0    155      0      0      0      0      0      0
     12     12     14	    355    243     34     34      4    118    -16    109      0      0      0      0      0      0      0      0      0      0      0      0      0      0      0      0      0      0      0    176      0    191      0      0      0      0      0      0    212      0      0      9      0      0    109      0      0      0    120      0    -20      0      0      0      0      0      0      0      3      0     63      0      0      0      0      0      0
     12     13     15	    385    180     28     31      4      0      0      0      0      0      0      0      0      0      0      0      0    246      0      0      0      0      0      0      0      0      0    173    -75      0      0      0      0      0      0      0      0     24    262      0    -16      0      0    183      0      0      0    -20      0      0      0      0      0      0      0      0    282      0      0      0      0      0    224      0      0
     10     11     12	    435    173     31     32      5    173      0      0      0      0      0      0      0      0    -61    133      0      0      0      0    -49      0      0      0      0      0      0      0      0      0      0     21    254     30      0      0      0      0      0      0      0      0      0      0    103      0      0      0      0      0      0      0    298    117      0    111      0      0      0     57      0      0      0     91      0
      8     13     14	    101     52     33     34      7      0      0      0    -12      0      0     47      0      0     43      0      0      0      0      0      0      0      0      0      0      0      0      0      0      0      0      0     80      0      0     69      0    -10      0      0     40      0      0      0      0      0      0      0      0      0      0      0      0      0     77      0    -19      0      0      0      0      0      0      0     -8
      6     11     13	    362     68     29     31      1      0      0      0     32    -20      0      0      0      0      0      0      0      0      0      0      0      0      0      0      0      0      0      0      0      0     50      0      0      0     48      0    182     51    -33      0      0      0      0      0     19      0      0      0      0      0      0      0      0      0      0      0      0      0      0      0      0      0      0      0      0
     12     14     13	    476    236     23     33      7     44      0     96      0    116      0      0    138    113      0      0      0      0      0      0      0      0     48      2      0    205      0      0    286      0      0      0      0      0      0      0      0      8      0      0    201      0      0      0      0      0      0      0      0    298      0      0      0      0      0      0      0      0      0      0     78      0      0      0      0
     10     10     15	    189    125     29     31      5      0      0      0      0      0      0      0     76     58      0      0    122      0      0      0      0      0      0      0      0      0      0      0      0      0      0      0      0      0      0      0     70      0      0      0      0      0      3     62     75      0      0      0      0    117      0      0      0      0      0      0      0     87      0      0      0      0      0      0      0
     10     12     11	    458    252     32     34     10      0      0      0      0    164      0      0      0      0      0      0      0      0     21    309      0      0      0     56     45      0      0    103      0      0      0      0      0      0      0      0      0    -36      0      0     80      6      0    -13      0      0    155      0      0      0     77      0      0      0      0      0      0      0      0      0      0      0      0      0      0
     10     12     13	    187    104     19     28      1      0      0    148      0      0      0      0      0     77      0      0      0      0      0     -9      0     42      0      0    130      0    115      0      0      0      0     95      0    116      0      0      0      0      0      0     85     12      0      0      0      0      0      0      0    111      0      0      0      0      0      0      0      0      0     -5      0      0      0      0    -19
      7     12     11	    497    137     33     34      3      0      0      0      0      0      0      0     35    -40      0    202      0    183      0      0      0      0      0      0      0      0      0      0      0      0      0      0      0      0      0      0      0      0      0      0      0    243      0      0      0      0      0      3    282      0    -19      0      0      0      0      0      0      0    227      0      0      0      0      0      0
     11     11     13	    267    106     33     33      4      0     89      0      0      0      0      0    124      0      0      0      0    135      0      0      0      0     86     17      0      0      0      0      0      0      0     74      0      0      0      0      0    151      0      0     32    185      0      0      0      0      0      0      0      0      0      0      0     87      0      0      0      0      0      0      0      0      0      0      0
      7     15     12	    419    230     11     34      1    131      0      0      0      0    103      0      0      0      0    260      0      0      0      0      0     23      0      0      0      0     31      0      0      0      0      0    -78      0      0     80      0      0    -61      0      0      0      0     58     77      0    155     63      0      0      0      0      0      0      0      0    227      0      0      0      0    211      0    188      0
      7     10     12	    392    216     30     30      3      0      0    129      0      0      0      0      0    214      0      0     27      0      0      0      0    -12      0      0      0      0      0      0      0      0     90      0    -46      0      0      0      0     13      0      0    137     82      0    171    -51    181      0      0      0     57      0      0      0      0      0     -5      0      0      0      0      0    127      0      0    126
      6     12     11	    131     55     22     30      1      0      0    100      0      0      0      0      0      0      0      0      0      0      0      0      0      0      0      0      0      0      0      0      0      0      0      0      0      0      0    -18     88      0     -9      0      0     22      0     46      0      0      0      0      0      0      0      0     78      0      0      0      0      0      0      0      0      0     32      0      0
     11     10     11	    449    192     27     27      2      0      0      0      0      0      0      0      0      0      0      0      0    233      0      0    135      0      0      0      0      0      0    180    136      0      0      0      0      0      0    -25    132     54      0      0      0      0     11      0      0      0      0      0      0      0      0      0      0      0      0      0      0      0    211    127      0      0      0      0      0
     11     14     11	    389    188     28     31      9    -66      0      0      0      0      0      0    -54      0    102      0      0      0      0      0      0    -40      0      0      0     96      0      0      0      0      0      0      0      0    -14      0      0      0      0      0      0      0    168      0      0      0      0      0    224      0      0      0      0      0      0      0      0      0      0      0     32      0      0      0    234
     11     15     14	    322    130     18     31      9    194      0      0      0      0      0      0      0      0    104      0      0     55      0      0      0      0      0      0    -47      0      0     10      0      0      0      0      0     39      0      0      0      0      0      0      0      0      0      0      0      0      0      0      0     91      0      0      0      0      0      0      0      0    188      0      0      0      0      0      0
     12     14     11	    314     56     34     34      2      0      0      0      0      0      0      0      0     32      0      0      0    102     98    187      0     15      0      0      0      0      0    125      0      0    176      0      0     52      0      0      0      0      0      0      0      0     16    138      0      0      0      0      0      0     -8      0      0      0      0    -19      0      0      0    126      0      0    234      0      0